NAME: random-65-25441
TYPE: TSP
COMMENT: size=65 seed=25441
DIMENSION: 132
EDGE_WEIGHT_TYPE: EUC_2D
NODE_COORD_SECTION
+0 887 947
-0 887 947
+1 692 162
-1 92 508
+2 236 656
-2 908 307
+3 392 809
-3 347 851
+4 329 324
-4 602 992
+5 836 145
-5 21 100
+6 991 418
-6 326 106
+7 655 549
-7 904 289
+8 773 818
-8 488 703
+9 921 488
-9 175 843
+10 699 293
-10 218 774
+11 860 242
-11 905 102
+12 668 443
-12 941 482
+13 525 833
-13 8 398
+14 765 897
-14 973 843
+15 697 461
-15 411 532
+16 894 324
-16 667 652
+17 84 681
-17 932 137
+18 332 277
-18 846 669
+19 250 98
-19 94 711
+20 895 171
-20 648 383
+21 414 643
-21 995 779
+22 622 336
-22 904 172
+23 995 436
-23 46 872
+24 255 641
-24 561 8
+25 98 689
-25 129 356
+26 647 557
-26 199 597
+27 42 57
-27 234 932
+28 22 508
-28 323 384
+29 214 395
-29 134 946
+30 502 342
-30 782 148
+31 294 362
-31 766 89
+32 152 776
-32 867 882
+33 34 634
-33 942 53
+34 184 801
-34 25 77
+35 426 489
-35 702 594
+36 304 237
-36 864 402
+37 877 730
-37 817 421
+38 613 625
-38 280 520
+39 168 664
-39 447 356
+40 908 506
-40 645 580
+41 471 921
-41 70 593
+42 471 108
-42 627 197
+43 515 936
-43 75 972
+44 164 380
-44 915 426
+45 661 315
-45 692 505
+46 961 813
-46 753 704
+47 882 273
-47 621 704
+48 857 562
-48 462 421
+49 181 92
-49 920 325
+50 988 87
-50 627 829
+51 93 495
-51 247 264
+52 772 226
-52 89 127
+53 660 55
-53 184 769
+54 291 79
-54 358 830
+55 708 456
-55 606 490
+56 197 566
-56 492 227
+57 24 701
-57 436 586
+58 268 917
-58 276 959
+59 986 106
-59 409 958
+60 258 666
-60 637 59
+61 700 875
-61 670 799
+62 929 11
-62 499 124
+63 250 589
-63 451 740
+64 662 213
-64 537 661
+65 134 74
-65 934 267
PRECEDENCE_SECTION
+0 -0
+1 -1
+2 -2
+3 -3
+4 -4
+5 -5
+6 -6
+7 -7
+8 -8
+9 -9
+10 -10
+11 -11
+12 -12
+13 -13
+14 -14
+15 -15
+16 -16
+17 -17
+18 -18
+19 -19
+20 -20
+21 -21
+22 -22
+23 -23
+24 -24
+25 -25
+26 -26
+27 -27
+28 -28
+29 -29
+30 -30
+31 -31
+32 -32
+33 -33
+34 -34
+35 -35
+36 -36
+37 -37
+38 -38
+39 -39
+40 -40
+41 -41
+42 -42
+43 -43
+44 -44
+45 -45
+46 -46
+47 -47
+48 -48
+49 -49
+50 -50
+51 -51
+52 -52
+53 -53
+54 -54
+55 -55
+56 -56
+57 -57
+58 -58
+59 -59
+60 -60
+61 -61
+62 -62
+63 -63
+64 -64
+65 -65
EOF
